20 5
0  77  1  95  2  41  3  97  4  47  
0  99  1  28  2  42  3   4  4   7  
0  74  1  25  2  92  3  29  4   4  
0   4  1  21  2  40  3  80  4  66  
0  49  1  95  2  96  3  74  4  96  
0  53  1  59  2  75  3  19  4  13 
0  88  1  47  2  28  3  11  4  86  
0  92  1  99  2  84  3  13  4  73  
0   2  1  49  2  86  3  46  4  58
0  97  1  18  2  28  3  77  4  92
0  28  1  93  2  93  3   7  4  25
0  64  1  22  2  91  3  56  4  46
0  25  1  96  2  98  3  51  4  21
0  19  1  41  2  87  3  15  4  31
0  81  1   1  2  74  3  56  4   8
0   9  1  29  2  49  3  48  4  72
0   5  1  74  2  19  3  27  4  71
0   8  1  66  2  40  3  71  4  17
0  34  1   7  2  58  3  94  4  22
0  13  1  56  2  45  3  27  4  40